letting n_nurses=25
letting n_days=7
letting n_shift_types=4
letting max_covers=8
letting t_covers=61
letting covers=[4,7,0,0,7,0,5,0,6,7,0,0,6,4,0,0,8,6,0,0,1,0,0,0,0,0,0,0]
letting prefes=[4,1,4,1,1,4,3,1,4,1,4,1,2,4,1,1,1,4,3,1,4,1,2,1,2,4,1,1,1,4,4,4,1,1,1,2,1,4,4,4,1,1,1,2,1,1,1,2,1,4,1,1,1,1,1,2,1,4,4,4,4,1,1,1,1,4,4,4,1,1,1,1,4,1,1,1,4,1,1,3,1,1,1,1,1,4,4,4,4,1,1,1,1,4,4,4,1,1,1,1,4,1,1,1,1,4,1,1,1,1,1,1,1,4,1,4,1,1,1,2,1,4,1,4,2,1,3,2,1,1,1,2,1,4,2,1,2,1,3,2,1,4,4,4,1,1,1,1,1,4,4,4,1,1,1,1,1,1,1,1,1,1,1,3,1,1,1,1,1,4,4,1,1,1,1,2,1,4,4,1,1,1,1,2,1,1,1,2,1,4,1,1,1,1,1,2,1,1,4,4,1,1,1,1,1,1,4,4,1,1,1,1,1,1,1,1,1,1,1,1,1,1,1,1,1,1,4,4,1,1,1,1,1,1,4,4,2,1,3,1,1,1,1,1,1,1,2,1,2,1,3,1,1,4,4,4,1,1,1,1,1,4,4,4,2,1,1,1,1,1,1,1,1,1,2,1,2,1,1,1,4,4,4,4,1,1,1,1,4,4,4,4,1,1,1,1,1,1,1,1,1,1,1,1,1,1,1,1,4,4,4,4,1,4,3,1,4,4,4,4,1,4,1,1,1,4,3,1,1,1,1,1,1,4,1,1,1,4,4,4,4,1,1,1,1,4,4,4,2,1,1,1,4,1,1,1,4,1,2,3,2,1,1,1,1,4,1,4,4,4,1,1,1,4,1,4,1,4,1,1,4,4,1,1,4,4,1,1,1,4,1,1,1,4,1,4,1,1,3,1,1,4,1,4,1,1,1,1,1,1,3,1,1,1,1,1,1,1,1,1,4,4,4,4,1,1,1,1,4,4,4,4,1,1,1,1,1,1,1,1,1,1,1,3,1,1,1,1,1,4,4,4,1,1,1,1,1,4,4,4,1,1,1,1,1,1,1,1,1,1,1,3,1,1,1,1,1,4,4,4,1,4,3,1,1,4,4,4,1,4,1,1,1,4,3,1,1,1,1,1,1,4,1,1,1,1,1,1,1,1,1,2,1,1,1,1,1,1,3,2,1,1,1,2,1,1,1,1,1,1,3,2,1,4,4,4,1,4,1,1,1,4,4,4,1,4,1,1,1,4,1,1,1,1,1,1,1,4,1,1,1,1,1,1,1,1,3,2,1,1,1,1,1,1,3,2,1,1,3,2,1,1,1,1,1,1,3,2,4,4,4,4,4,1,1,1,4,4,4,4,1,1,1,1,4,1,1,1,4,1,1,1,1,1,1,1,1,4,4,4,1,1,1,1,1,4,4,4,1,1,3,1,1,1,1,1,1,1,1,1,1,1,3,1,1,4,4,4,1,1,1,1,1,4,4,4,1,1,1,1,1,1,1,1,1,1,1,1,1,1,1,1,1,4,4,1,1,1,1,1,1,4,4,1,1,1,1,1,1,1,1,1,1,1,1,1,1,1,1,1]
letting ub =  201
